46
2 75 63 
3 7 80 99 
3 59 120 27 
2 15 47 
3 51 2 57 
3 16 3 73 
2 113 78 
3 28 30 33 
2 107 118 
3 72 39 95 
3 49 11 64 
3 8 103 66 
2 97 41 
3 116 119 96 
3 91 100 70 
2 24 75 
3 43 29 117 
3 53 92 82 
3 87 58 12 
3 63 76 94 
3 32 81 77 
2 83 55 
2 101 79 
3 88 44 112 
3 98 65 5 
3 36 98 17 
3 14 10 115 
2 35 54 
2 17 106 
2 40 114 
3 50 21 42 
3 34 19 108 
3 110 22 9 
3 43 29 117 
3 23 26 109 
2 69 90 
3 4 25 38 
3 20 89 48 
3 6 104 74 
2 105 85 
2 86 62 
2 84 71 
2 27 102 
3 7 80 99 
2 67 93 
2 111 56 
